p cnf 222 1254
1 2 0
3 4 0
5 6 0
7 8 0
9 10 0
11 12 0
13 14 0
15 16 0
17 18 0
19 20 0
21 22 0
23 24 0
25 26 0
27 28 0
29 30 0
31 32 0
33 34 0
35 36 0
37 38 0
39 40 0
41 42 0
43 44 0
45 46 0
47 48 0
49 50 0
51 52 0
53 54 0
55 56 0
57 58 0
59 60 0
61 62 0
63 64 0
65 66 0
67 68 0
69 70 0
71 72 0
73 74 0
75 76 0
77 78 0
79 80 0
81 82 0
83 84 0
85 86 0
87 88 0
89 90 0
91 92 0
93 94 0
95 96 0
97 98 0
99 0
100 101 0
102 103 0
104 105 0
106 107 0
108 109 0
110 111 0
112 113 0
114 115 0
116 117 0
118 119 0
120 121 0
122 123 0
124 125 0
126 127 0
128 129 0
130 131 0
132 133 0
134 135 0
136 137 0
138 139 0
140 141 0
142 143 0
144 145 0
146 147 0
149 150 0
151 152 0
153 154 0
155 156 0
157 158 0
159 160 0
161 162 0
163 164 0
165 166 0
167 168 0
169 170 0
171 172 0
173 174 0
175 176 0
177 178 0
179 180 0
181 182 0
183 184 0
185 186 0
187 188 0
189 190 0
-1 -4 -6 -8 -10 -12 -13 -16 -17 -20 -22 -24 -25 -28 -30 -32 -33 -36 -37 -40 -41 -44 -45 -48 -50 -51 -54 -55 -57 -60 -61 -64 0
-65 -68 -70 -72 -74 -76 -77 -80 -81 -84 -86 -88 -89 -92 -94 -96 -97 -99 -100 -103 -104 -107 -108 -111 -113 -114 -117 -118 -120 -123 -124 -127 0
-128 -131 -133 -135 -137 -139 -140 -143 -144 -147 -150 -151 -154 -156 -158 -159 -162 -163 -166 -167 -170 -171 -174 -176 -177 -180 -181 -183 -186 -187 -190 0
-1 -3 -6 -7 -9 -11 -13 -16 -18 -19 -21 -24 -25 -28 -29 -32 -33 -35 -37 -40 -41 -44 -46 -47 -50 -51 -53 -56 -57 -59 -61 -64 0
-128 -130 -133 -134 -136 -138 -140 -143 -145 -146 -148 -150 -151 -154 -155 -158 -159 -161 -163 -166 -167 -170 -172 -173 -176 -177 -179 -182 -183 -185 -187 -190 0
-1 -3 -5 -8 -10 -11 -13 -15 -18 -20 -22 -24 -25 -27 -29 -31 -33 -36 -37 -39 -42 -44 -46 -48 -50 -52 -54 -55 -58 -59 -61 -64 0
-65 -67 -69 -72 -74 -75 -77 -79 -82 -84 -86 -88 -89 -91 -93 -95 -97 -99 -100 -102 -105 -107 -109 -111 -113 -115 -117 -118 -121 -122 -124 -127 0
-128 -130 -132 -135 -137 -138 -140 -142 -145 -147 -150 -151 -153 -155 -157 -159 -162 -163 -165 -168 -170 -172 -174 -176 -178 -180 -181 -184 -185 -187 -190 0
-1 -4 -5 -8 -10 -12 -13 -15 -18 -19 -21 -24 -25 -27 -29 -31 -33 -35 -38 -39 -42 -43 -46 -48 -50 -51 -53 -56 -58 -59 -61 -63 0
-128 -131 -132 -135 -137 -139 -140 -142 -145 -146 -148 -150 -151 -153 -155 -157 -159 -161 -164 -165 -168 -169 -172 -174 -176 -177 -179 -182 -184 -185 -187 -189 0
-1 -3 -6 -7 -9 -12 -14 -15 -17 -20 -21 -24 -25 -27 -29 -32 -33 -36 -38 -39 -42 -43 -45 -48 -49 -52 -54 -56 -58 -60 -61 -64 0
-65 -67 -70 -71 -73 -76 -78 -79 -81 -84 -85 -88 -89 -91 -93 -96 -97 -99 -101 -102 -105 -106 -108 -111 -112 -115 -117 -119 -121 -123 -124 -127 0
-128 -130 -133 -134 -136 -139 -141 -142 -144 -147 -148 -150 -151 -153 -155 -158 -159 -162 -164 -165 -168 -169 -171 -174 -175 -178 -180 -182 -184 -186 -187 -190 0
-1 -3 -5 -8 -9 -11 -14 -16 -18 -20 -21 -24 -25 -27 -30 -32 -33 -36 -37 -39 -42 -43 -46 -48 -50 -52 -54 -55 -57 -59 -62 -64 0
-65 -67 -69 -72 -73 -75 -78 -80 -82 -84 -85 -88 -89 -91 -94 -96 -97 -99 -100 -102 -105 -106 -109 -111 -113 -115 -117 -118 -120 -122 -125 -127 0
-128 -130 -132 -135 -136 -138 -141 -143 -145 -147 -148 -150 -151 -153 -156 -158 -159 -162 -163 -165 -168 -169 -172 -174 -176 -178 -180 -181 -183 -185 -188 -190 0
-1 -3 -5 -7 -9 -12 -14 -16 -18 -19 -21 -24 -25 -28 -30 -32 -34 -35 -38 -40 -42 -44 -45 -48 -50 -51 -54 -55 -57 -60 -62 -64 0
-128 -130 -132 -134 -136 -139 -141 -143 -145 -146 -148 -150 -151 -154 -156 -158 -160 -161 -164 -166 -168 -170 -171 -174 -176 -177 -180 -181 -183 -186 -188 -190 0
-2 -3 -5 -8 -10 -11 -13 -15 -18 -20 -21 -23 -26 -27 -30 -32 -33 -35 -38 -40 -41 -43 -45 -48 -50 -52 -54 -55 -58 -59 -61 -64 0
-129 -130 -132 -135 -137 -138 -140 -142 -145 -147 -148 -149 -152 -153 -156 -158 -159 -161 -164 -166 -167 -169 -171 -174 -176 -178 -180 -181 -184 -185 -187 -190 0
-1 -3 -5 -8 -9 -12 -13 -16 -17 -19 -21 -23 -26 -27 -29 -32 -34 -35 -37 -40 -42 -44 -45 -47 -49 -51 -54 -56 -57 -60 -62 -64 0
-128 -130 -132 -135 -136 -139 -140 -143 -144 -146 -148 -149 -152 -153 -155 -158 -160 -161 -163 -166 -168 -170 -171 -173 -175 -177 -180 -182 -183 -186 -188 -190 0
-1 -4 -6 -8 -10 -12 -13 -16 -18 -20 -21 -23 -26 -28 -29 -31 -34 -36 -37 -39 -42 -44 -46 -48 -49 -52 -53 -56 -58 -59 -61 -63 0
-65 -68 -70 -72 -74 -76 -77 -80 -82 -84 -85 -87 -90 -92 -93 -95 -98 -99 -100 -102 -105 -107 -109 -111 -112 -115 -116 -119 -121 -122 -124 -126 0
-128 -131 -133 -135 -137 -139 -140 -143 -145 -147 -148 -149 -152 -154 -155 -157 -160 -162 -163 -165 -168 -170 -172 -174 -175 -178 -179 -182 -184 -185 -187 -189 0
-2 -4 -5 -8 -9 -11 -13 -16 -17 -19 -21 -24 -26 -28 -30 -32 -34 -35 -37 -39 -41 -44 -45 -48 -49 -52 -54 -56 -58 -59 -62 -63 0
-129 -131 -132 -135 -136 -138 -140 -143 -144 -146 -148 -150 -152 -154 -156 -158 -160 -161 -163 -165 -167 -170 -171 -174 -175 -178 -180 -182 -184 -185 -188 -189 0
-2 -3 -5 -8 -10 -12 -13 -15 -18 -20 -21 -24 -25 -27 -29 -31 -33 -35 -38 -40 -42 -43 -46 -47 -49 -51 -54 -56 -58 -59 -62 -63 0
-129 -130 -132 -135 -137 -139 -140 -142 -145 -147 -148 -150 -151 -153 -155 -157 -159 -161 -164 -166 -168 -169 -172 -173 -175 -177 -180 -182 -184 -185 -188 -189 0
-1 -4 -6 -7 -9 -12 -14 -16 -17 -20 -21 -24 -25 -28 -29 -32 -33 -35 -37 -40 -42 -43 -46 -48 -49 -52 -54 -56 -57 -60 -62 -63 0
-128 -131 -133 -134 -136 -139 -141 -143 -144 -147 -148 -150 -151 -154 -155 -158 -159 -161 -163 -166 -168 -169 -172 -174 -175 -178 -180 -182 -183 -186 -188 -189 0
-1 -3 -6 -8 -10 -11 -13 -16 -18 -19 -21 -23 -26 -28 -29 -31 -33 -36 -37 -40 -42 -44 -46 -47 -49 -52 -53 -55 -58 -59 -62 -63 0
-65 -67 -70 -72 -74 -75 -77 -80 -82 -83 -85 -87 -90 -92 -93 -95 -97 -99 -100 -103 -105 -107 -109 -110 -112 -115 -116 -118 -121 -122 -125 -126 0
-128 -130 -133 -135 -137 -138 -140 -143 -145 -146 -148 -149 -152 -154 -155 -157 -159 -162 -163 -166 -168 -170 -172 -173 -175 -178 -179 -181 -184 -185 -188 -189 0
-1 -3 -5 -7 -9 -12 -14 -16 -17 -20 -21 -23 -26 -28 -30 -31 -33 -35 -38 -40 -41 -44 -46 -47 -50 -52 -54 -56 -58 -59 -61 -64 0
-128 -130 -132 -134 -136 -139 -141 -143 -144 -147 -148 -149 -152 -154 -156 -157 -159 -161 -164 -166 -167 -170 -172 -173 -176 -178 -180 -182 -184 -185 -187 -190 0
-2 -3 -6 -7 -9 -12 -14 -16 -17 -19 -22 -24 -26 -28 -29 -32 -33 -36 -37 -40 -42 -44 -45 -47 -50 -51 -53 -56 -58 -60 -62 -63 0
-66 -67 -70 -71 -73 -76 -78 -80 -81 -83 -86 -88 -90 -92 -93 -96 -97 -99 -100 -103 -105 -107 -108 -110 -113 -114 -116 -119 -121 -123 -125 -126 0
-129 -130 -133 -134 -136 -139 -141 -143 -144 -146 -150 -152 -154 -155 -158 -159 -162 -163 -166 -168 -170 -171 -173 -176 -177 -179 -182 -184 -186 -188 -189 0
-2 -4 -5 -8 -10 -12 -14 -15 -17 -20 -21 -24 -25 -27 -29 -32 -33 -35 -37 -40 -42 -43 -45 -48 -49 -52 -54 -56 -58 -59 -61 -64 0
-129 -131 -132 -135 -137 -139 -141 -142 -144 -147 -148 -150 -151 -153 -155 -158 -159 -161 -163 -166 -168 -169 -171 -174 -175 -178 -180 -182 -184 -185 -187 -190 0
-2 -3 -6 -8 -10 -12 -13 -15 -18 -20 -21 -23 -25 -27 -30 -32 -34 -36 -37 -40 -41 -43 -46 -47 -49 -51 -54 -56 -58 -59 -61 -64 0
-66 -67 -70 -72 -74 -76 -77 -79 -82 -84 -85 -87 -89 -91 -94 -96 -98 -99 -100 -103 -104 -106 -109 -110 -112 -114 -117 -119 -121 -122 -124 -127 0
-129 -130 -133 -135 -137 -139 -140 -142 -145 -147 -148 -149 -151 -153 -156 -158 -160 -162 -163 -166 -167 -169 -172 -173 -175 -177 -180 -182 -184 -185 -187 -190 0
-2 -3 -6 -8 -10 -11 -14 -15 -18 -19 -22 -23 -25 -28 -30 -32 -33 -35 -37 -39 -42 -44 -45 -47 -50 -51 -54 -55 -58 -59 -61 -64 0
-129 -130 -133 -135 -137 -138 -141 -142 -145 -146 -149 -151 -154 -156 -158 -159 -161 -163 -165 -168 -170 -171 -173 -176 -177 -180 -181 -184 -185 -187 -190 0
-1 -3 -6 -8 -9 -11 -14 -16 -17 -20 -21 -24 -25 -28 -30 -32 -33 -35 -37 -40 -41 -44 -46 -48 -50 -51 -53 -55 -57 -60 -61 -63 0
-128 -130 -133 -135 -136 -138 -141 -143 -144 -147 -148 -150 -151 -154 -156 -158 -159 -161 -163 -166 -167 -170 -172 -174 -176 -177 -179 -181 -183 -186 -187 -189 0
-1 -3 -6 -7 -10 -12 -14 -15 -17 -20 -21 -23 -26 -28 -29 -32 -33 -35 -38 -39 -42 -44 -46 -47 -50 -52 -53 -55 -58 -60 -61 -64 0
-128 -130 -133 -134 -137 -139 -141 -142 -144 -147 -148 -149 -152 -154 -155 -158 -159 -161 -164 -165 -168 -170 -172 -173 -176 -178 -179 -181 -184 -186 -187 -190 0
-2 -4 -6 -7 -10 -12 -13 -16 -17 -19 -22 -24 -26 -27 -29 -31 -34 -35 -38 -39 -41 -43 -45 -48 -50 -51 -54 -56 -58 -59 -61 -63 0
-129 -131 -133 -134 -137 -139 -140 -143 -144 -146 -150 -152 -153 -155 -157 -160 -161 -164 -165 -167 -169 -171 -174 -176 -177 -180 -182 -184 -185 -187 -189 0
-2 -4 -5 -7 -9 -11 -14 -15 -18 -19 -22 -24 -25 -27 -30 -32 -33 -35 -37 -40 -42 -44 -46 -48 -49 -51 -54 -55 -58 -59 -61 -64 0
-129 -131 -132 -134 -136 -138 -141 -142 -145 -146 -150 -151 -153 -156 -158 -159 -161 -163 -166 -168 -170 -172 -174 -175 -177 -180 -181 -184 -185 -187 -190 0
-1 -3 -5 -8 -9 -12 -13 -15 -17 -19 -22 -23 -26 -28 -29 -32 -34 -36 -37 -39 -41 -43 -45 -47 -50 -51 -54 -56 -57 -60 -62 -63 0
-65 -67 -69 -72 -73 -76 -77 -79 -81 -83 -86 -87 -90 -92 -93 -96 -98 -99 -100 -102 -104 -106 -108 -110 -113 -114 -117 -119 -120 -123 -125 -126 0
-128 -130 -132 -135 -136 -139 -140 -142 -144 -146 -149 -152 -154 -155 -158 -160 -162 -163 -165 -167 -169 -171 -173 -176 -177 -180 -182 -183 -186 -188 -189 0
-1 -3 -6 -7 -10 -11 -13 -15 -17 -20 -21 -23 -26 -28 -29 -32 -34 -36 -38 -39 -41 -43 -45 -48 -50 -52 -54 -55 -57 -60 -62 -64 0
-65 -67 -70 -71 -74 -75 -77 -79 -81 -84 -85 -87 -90 -92 -93 -96 -98 -99 -101 -102 -104 -106 -108 -111 -113 -115 -117 -118 -120 -123 -125 -127 0
-128 -130 -133 -134 -137 -138 -140 -142 -144 -147 -148 -149 -152 -154 -155 -158 -160 -162 -164 -165 -167 -169 -171 -174 -176 -178 -180 -181 -183 -186 -188 -190 0
-1 -4 -5 -7 -9 -12 -13 -16 -18 -19 -21 -24 -26 -27 -30 -32 -34 -35 -37 -40 -42 -44 -46 -47 -49 -52 -54 -55 -57 -60 -61 -63 0
-128 -131 -132 -134 -136 -139 -140 -143 -145 -146 -148 -150 -152 -153 -156 -158 -160 -161 -163 -166 -168 -170 -172 -173 -175 -178 -180 -181 -183 -186 -187 -189 0
-1 -4 -6 -7 -10 -11 -14 -16 -18 -20 -21 -24 -25 -28 -30 -31 -33 -35 -38 -39 -42 -43 -45 -48 -50 -51 -53 -56 -58 -59 -61 -63 0
-128 -131 -133 -134 -137 -138 -141 -143 -145 -147 -148 -150 -151 -154 -156 -157 -159 -161 -164 -165 -168 -169 -171 -174 -176 -177 -179 -182 -184 -185 -187 -189 0
-1 -4 -6 -8 -10 -12 -14 -15 -18 -19 -21 -24 -26 -27 -29 -31 -33 -36 -37 -39 -42 -43 -45 -47 -49 -51 -54 -55 -57 -59 -61 -63 0
-65 -68 -70 -72 -74 -76 -78 -79 -82 -83 -85 -88 -90 -91 -93 -95 -97 -99 -100 -102 -105 -106 -108 -110 -112 -114 -117 -118 -120 -122 -124 -126 0
-128 -131 -133 -135 -137 -139 -141 -142 -145 -146 -148 -150 -152 -153 -155 -157 -159 -162 -163 -165 -168 -169 -171 -173 -175 -177 -180 -181 -183 -185 -187 -189 0
-2 -3 -5 -7 -10 -12 -14 -15 -18 -20 -21 -24 -26 -28 -30 -31 -33 -36 -37 -40 -42 -43 -46 -47 -49 -52 -54 -56 -58 -60 -62 -63 0
-66 -67 -69 -71 -74 -76 -78 -79 -82 -84 -85 -88 -90 -92 -94 -95 -97 -99 -100 -103 -105 -106 -109 -110 -112 -115 -117 -119 -121 -123 -125 -126 0
-129 -130 -132 -134 -137 -139 -141 -142 -145 -147 -148 -150 -152 -154 -156 -157 -159 -162 -163 -166 -168 -169 -172 -173 -175 -178 -180 -182 -184 -186 -188 -189 0
-2 -3 -5 -8 -9 -12 -14 -15 -17 -20 -22 -23 -26 -28 -29 -31 -34 -36 -38 -39 -42 -44 -45 -48 -50 -52 -53 -55 -57 -60 -62 -63 0
-66 -67 -69 -72 -73 -76 -78 -79 -81 -84 -86 -87 -90 -92 -93 -95 -98 -99 -101 -102 -105 -107 -108 -111 -113 -115 -116 -118 -120 -123 -125 -126 0
-129 -130 -132 -135 -136 -139 -141 -142 -144 -147 -149 -152 -154 -155 -157 -160 -162 -164 -165 -168 -170 -171 -174 -176 -178 -179 -181 -183 -186 -188 -189 0
-2 -4 -6 -8 -10 -11 -13 -15 -18 -20 -21 -24 -25 -28 -30 -31 -34 -36 -37 -40 -41 -43 -46 -47 -49 -52 -54 -55 -58 -60 -62 -64 0
-66 -68 -70 -72 -74 -75 -77 -79 -82 -84 -85 -88 -89 -92 -94 -95 -98 -99 -100 -103 -104 -106 -109 -110 -112 -115 -117 -118 -121 -123 -125 -127 0
-129 -131 -133 -135 -137 -138 -140 -142 -145 -147 -148 -150 -151 -154 -156 -157 -160 -162 -163 -166 -167 -169 -172 -173 -175 -178 -180 -181 -184 -186 -188 -190 0
-1 -3 -6 -8 -9 -12 -14 -15 -18 -19 -22 -23 -26 -27 -30 -31 -34 -35 -38 -39 -41 -43 -45 -48 -50 -51 -53 -56 -57 -60 -62 -64 0
-128 -130 -133 -135 -136 -139 -141 -142 -145 -146 -149 -152 -153 -156 -157 -160 -161 -164 -165 -167 -169 -171 -174 -176 -177 -179 -182 -183 -186 -188 -190 0
-2 -3 -5 -8 -9 -11 -14 -15 -17 -19 -21 -23 -25 -28 -30 -32 -33 -35 -38 -40 -42 -44 -45 -48 -49 -52 -54 -55 -58 -60 -61 -64 0
-129 -130 -132 -135 -136 -138 -141 -142 -144 -146 -148 -149 -151 -154 -156 -158 -159 -161 -164 -166 -168 -170 -171 -174 -175 -178 -180 -181 -184 -186 -187 -190 0
-2 -3 -6 -8 -9 -11 -14 -15 -17 -20 -21 -24 -26 -28 -30 -32 -34 -36 -38 -40 -41 -44 -46 -47 -50 -52 -53 -55 -57 -59 -61 -64 0
-66 -67 -70 -72 -73 -75 -78 -79 -81 -84 -85 -88 -90 -92 -94 -96 -98 -99 -101 -103 -104 -107 -109 -110 -113 -115 -116 -118 -120 -122 -124 -127 0
-129 -130 -133 -135 -136 -138 -141 -142 -144 -147 -148 -150 -152 -154 -156 -158 -160 -162 -164 -166 -167 -170 -172 -173 -176 -178 -179 -181 -183 -185 -187 -190 0
-1 -3 -5 -8 -9 -12 -13 -16 -18 -19 -21 -23 -25 -27 -30 -31 -34 -35 -37 -40 -41 -43 -46 -47 -49 -51 -54 -55 -57 -60 -61 -64 0
-128 -130 -132 -135 -136 -139 -140 -143 -145 -146 -148 -149 -151 -153 -156 -157 -160 -161 -163 -166 -167 -169 -172 -173 -175 -177 -180 -181 -183 -186 -187 -190 0
-2 -3 -5 -8 -9 -12 -13 -16 -17 -19 -22 -24 -25 -28 -30 -32 -33 -36 -37 -40 -42 -43 -46 -48 -50 -51 -54 -55 -57 -59 -61 -63 0
-66 -67 -69 -72 -73 -76 -77 -80 -81 -83 -86 -88 -89 -92 -94 -96 -97 -99 -100 -103 -105 -106 -109 -111 -113 -114 -117 -118 -120 -122 -124 -126 0
-129 -130 -132 -135 -136 -139 -140 -143 -144 -146 -150 -151 -154 -156 -158 -159 -162 -163 -166 -168 -169 -172 -174 -176 -177 -180 -181 -183 -185 -187 -189 0
-1 -4 -6 -7 -9 -12 -14 -15 -18 -20 -22 -24 -26 -27 -29 -31 -34 -35 -37 -39 -41 -43 -46 -48 -50 -52 -53 -55 -57 -60 -62 -63 0
-128 -131 -133 -134 -136 -139 -141 -142 -145 -147 -150 -152 -153 -155 -157 -160 -161 -163 -165 -167 -169 -172 -174 -176 -178 -179 -181 -183 -186 -188 -189 0
-1 -3 -5 -8 -9 -11 -13 -16 -17 -20 -21 -23 -25 -28 -30 -31 -33 -36 -38 -39 -42 -44 -45 -48 -49 -51 -53 -56 -58 -60 -62 -63 0
-65 -67 -69 -72 -73 -75 -77 -80 -81 -84 -85 -87 -89 -92 -94 -95 -97 -99 -101 -102 -105 -107 -108 -111 -112 -114 -116 -119 -121 -123 -125 -126 0
-128 -130 -132 -135 -136 -138 -140 -143 -144 -147 -148 -149 -151 -154 -156 -157 -159 -162 -164 -165 -168 -170 -171 -174 -175 -177 -179 -182 -184 -186 -188 -189 0
-2 -3 -5 -8 -10 -12 -14 -15 -18 -19 -22 -24 -26 -28 -30 -31 -34 -36 -38 -39 -41 -43 -45 -47 -50 -52 -54 -55 -57 -60 -61 -63 0
-66 -67 -69 -72 -74 -76 -78 -79 -82 -83 -86 -88 -90 -92 -94 -95 -98 -99 -101 -102 -104 -106 -108 -110 -113 -115 -117 -118 -120 -123 -124 -126 0
-129 -130 -132 -135 -137 -139 -141 -142 -145 -146 -150 -152 -154 -156 -157 -160 -162 -164 -165 -167 -169 -171 -173 -176 -178 -180 -181 -183 -186 -187 -189 0
1 -191 0
4 -191 0
5 -191 0
7 -191 0
9 -191 0
11 -191 0
13 -191 0
16 -191 0
17 -191 0
20 -191 0
21 -191 0
23 -191 0
26 -191 0
27 -191 0
29 -191 0
32 -191 0
34 -191 0
35 -191 0
38 -191 0
39 -191 0
42 -191 0
44 -191 0
46 -191 0
47 -191 0
49 -191 0
52 -191 0
54 -191 0
56 -191 0
57 -191 0
60 -191 0
61 -191 0
64 -191 0
65 -192 0
68 -192 0
69 -192 0
71 -192 0
73 -192 0
75 -192 0
77 -192 0
80 -192 0
81 -192 0
84 -192 0
85 -192 0
87 -192 0
90 -192 0
91 -192 0
93 -192 0
96 -192 0
98 -192 0
-192 0
101 -192 0
102 -192 0
105 -192 0
107 -192 0
109 -192 0
110 -192 0
112 -192 0
115 -192 0
117 -192 0
119 -192 0
120 -192 0
123 -192 0
124 -192 0
127 -192 0
128 -193 0
131 -193 0
132 -193 0
134 -193 0
136 -193 0
138 -193 0
140 -193 0
143 -193 0
144 -193 0
147 -193 0
148 -193 0
149 -193 0
152 -193 0
153 -193 0
155 -193 0
158 -193 0
160 -193 0
161 -193 0
164 -193 0
165 -193 0
168 -193 0
170 -193 0
172 -193 0
173 -193 0
175 -193 0
178 -193 0
180 -193 0
182 -193 0
183 -193 0
186 -193 0
187 -193 0
190 -193 0
1 -194 0
4 -194 0
5 -194 0
8 -194 0
10 -194 0
12 -194 0
13 -194 0
15 -194 0
18 -194 0
19 -194 0
22 -194 0
23 -194 0
26 -194 0
27 -194 0
30 -194 0
31 -194 0
34 -194 0
36 -194 0
38 -194 0
39 -194 0
41 -194 0
44 -194 0
45 -194 0
48 -194 0
50 -194 0
51 -194 0
53 -194 0
56 -194 0
57 -194 0
60 -194 0
61 -194 0
64 -194 0
65 -195 0
68 -195 0
69 -195 0
72 -195 0
74 -195 0
76 -195 0
77 -195 0
79 -195 0
82 -195 0
83 -195 0
86 -195 0
87 -195 0
90 -195 0
91 -195 0
94 -195 0
95 -195 0
98 -195 0
99 -195 0
101 -195 0
102 -195 0
104 -195 0
107 -195 0
108 -195 0
111 -195 0
113 -195 0
114 -195 0
116 -195 0
119 -195 0
120 -195 0
123 -195 0
124 -195 0
127 -195 0
128 -196 0
131 -196 0
132 -196 0
135 -196 0
137 -196 0
139 -196 0
140 -196 0
142 -196 0
145 -196 0
146 -196 0
149 -196 0
152 -196 0
153 -196 0
156 -196 0
157 -196 0
160 -196 0
162 -196 0
164 -196 0
165 -196 0
167 -196 0
170 -196 0
171 -196 0
174 -196 0
176 -196 0
177 -196 0
179 -196 0
182 -196 0
183 -196 0
186 -196 0
187 -196 0
190 -196 0
2 -197 0
4 -197 0
5 -197 0
8 -197 0
9 -197 0
11 -197 0
14 -197 0
16 -197 0
17 -197 0
19 -197 0
21 -197 0
23 -197 0
26 -197 0
28 -197 0
29 -197 0
32 -197 0
34 -197 0
35 -197 0
38 -197 0
39 -197 0
41 -197 0
44 -197 0
45 -197 0
48 -197 0
50 -197 0
52 -197 0
53 -197 0
56 -197 0
57 -197 0
60 -197 0
62 -197 0
64 -197 0
66 -198 0
68 -198 0
69 -198 0
72 -198 0
73 -198 0
75 -198 0
78 -198 0
80 -198 0
81 -198 0
83 -198 0
85 -198 0
87 -198 0
90 -198 0
92 -198 0
93 -198 0
96 -198 0
98 -198 0
-198 0
101 -198 0
102 -198 0
104 -198 0
107 -198 0
108 -198 0
111 -198 0
113 -198 0
115 -198 0
116 -198 0
119 -198 0
120 -198 0
123 -198 0
125 -198 0
127 -198 0
129 -199 0
131 -199 0
132 -199 0
135 -199 0
136 -199 0
138 -199 0
141 -199 0
143 -199 0
144 -199 0
146 -199 0
148 -199 0
149 -199 0
152 -199 0
154 -199 0
155 -199 0
158 -199 0
160 -199 0
161 -199 0
164 -199 0
165 -199 0
167 -199 0
170 -199 0
171 -199 0
174 -199 0
176 -199 0
178 -199 0
179 -199 0
182 -199 0
183 -199 0
186 -199 0
188 -199 0
190 -199 0
2 -200 0
4 -200 0
6 -200 0
7 -200 0
10 -200 0
11 -200 0
13 -200 0
15 -200 0
17 -200 0
19 -200 0
22 -200 0
24 -200 0
26 -200 0
27 -200 0
30 -200 0
31 -200 0
34 -200 0
36 -200 0
37 -200 0
39 -200 0
42 -200 0
44 -200 0
45 -200 0
47 -200 0
49 -200 0
52 -200 0
54 -200 0
55 -200 0
58 -200 0
59 -200 0
61 -200 0
64 -200 0
66 -201 0
68 -201 0
70 -201 0
71 -201 0
74 -201 0
75 -201 0
77 -201 0
79 -201 0
81 -201 0
83 -201 0
86 -201 0
88 -201 0
90 -201 0
91 -201 0
94 -201 0
95 -201 0
98 -201 0
99 -201 0
100 -201 0
102 -201 0
105 -201 0
107 -201 0
108 -201 0
110 -201 0
112 -201 0
115 -201 0
117 -201 0
118 -201 0
121 -201 0
122 -201 0
124 -201 0
127 -201 0
129 -202 0
131 -202 0
133 -202 0
134 -202 0
137 -202 0
138 -202 0
140 -202 0
142 -202 0
144 -202 0
146 -202 0
150 -202 0
152 -202 0
153 -202 0
156 -202 0
157 -202 0
160 -202 0
162 -202 0
163 -202 0
165 -202 0
168 -202 0
170 -202 0
171 -202 0
173 -202 0
175 -202 0
178 -202 0
180 -202 0
181 -202 0
184 -202 0
185 -202 0
187 -202 0
190 -202 0
2 -203 0
4 -203 0
5 -203 0
8 -203 0
10 -203 0
11 -203 0
14 -203 0
15 -203 0
17 -203 0
20 -203 0
21 -203 0
23 -203 0
26 -203 0
28 -203 0
30 -203 0
32 -203 0
33 -203 0
36 -203 0
37 -203 0
39 -203 0
42 -203 0
43 -203 0
46 -203 0
48 -203 0
49 -203 0
51 -203 0
54 -203 0
55 -203 0
57 -203 0
60 -203 0
61 -203 0
64 -203 0
66 -204 0
68 -204 0
69 -204 0
72 -204 0
74 -204 0
75 -204 0
78 -204 0
79 -204 0
81 -204 0
84 -204 0
85 -204 0
87 -204 0
90 -204 0
92 -204 0
94 -204 0
96 -204 0
97 -204 0
99 -204 0
100 -204 0
102 -204 0
105 -204 0
106 -204 0
109 -204 0
111 -204 0
112 -204 0
114 -204 0
117 -204 0
118 -204 0
120 -204 0
123 -204 0
124 -204 0
127 -204 0
129 -205 0
131 -205 0
132 -205 0
135 -205 0
137 -205 0
138 -205 0
141 -205 0
142 -205 0
144 -205 0
147 -205 0
148 -205 0
149 -205 0
152 -205 0
154 -205 0
156 -205 0
158 -205 0
159 -205 0
162 -205 0
163 -205 0
165 -205 0
168 -205 0
169 -205 0
172 -205 0
174 -205 0
175 -205 0
177 -205 0
180 -205 0
181 -205 0
183 -205 0
186 -205 0
187 -205 0
190 -205 0
1 -206 0
4 -206 0
6 -206 0
8 -206 0
9 -206 0
11 -206 0
13 -206 0
15 -206 0
18 -206 0
19 -206 0
21 -206 0
24 -206 0
26 -206 0
28 -206 0
29 -206 0
32 -206 0
33 -206 0
35 -206 0
38 -206 0
39 -206 0
41 -206 0
43 -206 0
46 -206 0
47 -206 0
50 -206 0
52 -206 0
53 -206 0
55 -206 0
57 -206 0
60 -206 0
61 -206 0
64 -206 0
65 -207 0
68 -207 0
70 -207 0
72 -207 0
73 -207 0
75 -207 0
77 -207 0
79 -207 0
82 -207 0
83 -207 0
85 -207 0
88 -207 0
90 -207 0
92 -207 0
93 -207 0
96 -207 0
97 -207 0
-207 0
101 -207 0
102 -207 0
104 -207 0
106 -207 0
109 -207 0
110 -207 0
113 -207 0
115 -207 0
116 -207 0
118 -207 0
120 -207 0
123 -207 0
124 -207 0
127 -207 0
128 -208 0
131 -208 0
133 -208 0
135 -208 0
136 -208 0
138 -208 0
140 -208 0
142 -208 0
145 -208 0
146 -208 0
148 -208 0
150 -208 0
152 -208 0
154 -208 0
155 -208 0
158 -208 0
159 -208 0
161 -208 0
164 -208 0
165 -208 0
167 -208 0
169 -208 0
172 -208 0
173 -208 0
176 -208 0
178 -208 0
179 -208 0
181 -208 0
183 -208 0
186 -208 0
187 -208 0
190 -208 0
1 -209 0
4 -209 0
6 -209 0
7 -209 0
10 -209 0
11 -209 0
13 -209 0
15 -209 0
17 -209 0
19 -209 0
21 -209 0
23 -209 0
26 -209 0
28 -209 0
30 -209 0
31 -209 0
33 -209 0
36 -209 0
38 -209 0
40 -209 0
41 -209 0
43 -209 0
46 -209 0
47 -209 0
49 -209 0
52 -209 0
54 -209 0
55 -209 0
57 -209 0
59 -209 0
62 -209 0
63 -209 0
65 -210 0
68 -210 0
70 -210 0
71 -210 0
74 -210 0
75 -210 0
77 -210 0
79 -210 0
81 -210 0
83 -210 0
85 -210 0
87 -210 0
90 -210 0
92 -210 0
94 -210 0
95 -210 0
97 -210 0
99 -210 0
101 -210 0
103 -210 0
104 -210 0
106 -210 0
109 -210 0
110 -210 0
112 -210 0
115 -210 0
117 -210 0
118 -210 0
120 -210 0
122 -210 0
125 -210 0
126 -210 0
128 -211 0
131 -211 0
133 -211 0
134 -211 0
137 -211 0
138 -211 0
140 -211 0
142 -211 0
144 -211 0
146 -211 0
148 -211 0
149 -211 0
152 -211 0
154 -211 0
156 -211 0
157 -211 0
159 -211 0
162 -211 0
164 -211 0
166 -211 0
167 -211 0
169 -211 0
172 -211 0
173 -211 0
175 -211 0
178 -211 0
180 -211 0
181 -211 0
183 -211 0
185 -211 0
188 -211 0
189 -211 0
2 -212 0
4 -212 0
6 -212 0
7 -212 0
10 -212 0
12 -212 0
14 -212 0
15 -212 0
18 -212 0
20 -212 0
21 -212 0
24 -212 0
25 -212 0
28 -212 0
30 -212 0
31 -212 0
33 -212 0
36 -212 0
38 -212 0
40 -212 0
42 -212 0
44 -212 0
45 -212 0
47 -212 0
50 -212 0
52 -212 0
54 -212 0
56 -212 0
57 -212 0
59 -212 0
62 -212 0
63 -212 0
66 -213 0
68 -213 0
70 -213 0
71 -213 0
74 -213 0
76 -213 0
78 -213 0
79 -213 0
82 -213 0
84 -213 0
85 -213 0
88 -213 0
89 -213 0
92 -213 0
94 -213 0
95 -213 0
97 -213 0
99 -213 0
101 -213 0
103 -213 0
105 -213 0
107 -213 0
108 -213 0
110 -213 0
113 -213 0
115 -213 0
117 -213 0
119 -213 0
120 -213 0
122 -213 0
125 -213 0
126 -213 0
129 -214 0
131 -214 0
133 -214 0
134 -214 0
137 -214 0
139 -214 0
141 -214 0
142 -214 0
145 -214 0
147 -214 0
148 -214 0
150 -214 0
151 -214 0
154 -214 0
156 -214 0
157 -214 0
159 -214 0
162 -214 0
164 -214 0
166 -214 0
168 -214 0
170 -214 0
171 -214 0
173 -214 0
176 -214 0
178 -214 0
180 -214 0
182 -214 0
183 -214 0
185 -214 0
188 -214 0
189 -214 0
2 -215 0
4 -215 0
6 -215 0
7 -215 0
10 -215 0
11 -215 0
14 -215 0
15 -215 0
17 -215 0
19 -215 0
22 -215 0
23 -215 0
25 -215 0
27 -215 0
29 -215 0
32 -215 0
34 -215 0
35 -215 0
38 -215 0
39 -215 0
41 -215 0
44 -215 0
46 -215 0
48 -215 0
49 -215 0
52 -215 0
54 -215 0
56 -215 0
58 -215 0
59 -215 0
62 -215 0
64 -215 0
66 -216 0
68 -216 0
70 -216 0
71 -216 0
74 -216 0
75 -216 0
78 -216 0
79 -216 0
81 -216 0
83 -216 0
86 -216 0
87 -216 0
89 -216 0
91 -216 0
93 -216 0
96 -216 0
98 -216 0
-216 0
101 -216 0
102 -216 0
104 -216 0
107 -216 0
109 -216 0
111 -216 0
112 -216 0
115 -216 0
117 -216 0
119 -216 0
121 -216 0
122 -216 0
125 -216 0
127 -216 0
129 -217 0
131 -217 0
133 -217 0
134 -217 0
137 -217 0
138 -217 0
141 -217 0
142 -217 0
144 -217 0
146 -217 0
149 -217 0
151 -217 0
153 -217 0
155 -217 0
158 -217 0
160 -217 0
161 -217 0
164 -217 0
165 -217 0
167 -217 0
170 -217 0
172 -217 0
174 -217 0
175 -217 0
178 -217 0
180 -217 0
182 -217 0
184 -217 0
185 -217 0
188 -217 0
190 -217 0
1 0
4 0
5 0
8 0
9 0
11 0
14 0
16 0
18 0
20 0
21 0
24 0
25 0
27 0
30 0
31 0
34 0
35 0
38 0
39 0
41 0
43 0
46 0
47 0
49 0
51 0
53 0
55 0
57 0
60 0
61 0
64 0
65 -218 0
68 -218 0
69 -218 0
72 -218 0
73 -218 0
75 -218 0
78 -218 0
80 -218 0
82 -218 0
84 -218 0
85 -218 0
88 -218 0
89 -218 0
91 -218 0
94 -218 0
95 -218 0
98 -218 0
-218 0
101 -218 0
102 -218 0
104 -218 0
106 -218 0
109 -218 0
110 -218 0
112 -218 0
114 -218 0
116 -218 0
118 -218 0
120 -218 0
123 -218 0
124 -218 0
127 -218 0
128 -219 0
131 -219 0
132 -219 0
135 -219 0
136 -219 0
138 -219 0
141 -219 0
143 -219 0
145 -219 0
147 -219 0
148 -219 0
150 -219 0
151 -219 0
153 -219 0
156 -219 0
157 -219 0
160 -219 0
161 -219 0
164 -219 0
165 -219 0
167 -219 0
169 -219 0
172 -219 0
173 -219 0
175 -219 0
177 -219 0
179 -219 0
181 -219 0
183 -219 0
186 -219 0
187 -219 0
190 -219 0
2 -220 0
4 -220 0
5 -220 0
7 -220 0
10 -220 0
11 -220 0
14 -220 0
15 -220 0
17 -220 0
19 -220 0
21 -220 0
24 -220 0
26 -220 0
28 -220 0
29 -220 0
31 -220 0
34 -220 0
35 -220 0
38 -220 0
39 -220 0
42 -220 0
43 -220 0
45 -220 0
48 -220 0
49 -220 0
52 -220 0
53 -220 0
55 -220 0
58 -220 0
60 -220 0
61 -220 0
64 -220 0
66 -221 0
68 -221 0
69 -221 0
71 -221 0
74 -221 0
75 -221 0
78 -221 0
79 -221 0
81 -221 0
83 -221 0
85 -221 0
88 -221 0
90 -221 0
92 -221 0
93 -221 0
95 -221 0
98 -221 0
-221 0
101 -221 0
102 -221 0
105 -221 0
106 -221 0
108 -221 0
111 -221 0
112 -221 0
115 -221 0
116 -221 0
118 -221 0
121 -221 0
123 -221 0
124 -221 0
127 -221 0
129 -222 0
131 -222 0
132 -222 0
134 -222 0
137 -222 0
138 -222 0
141 -222 0
142 -222 0
144 -222 0
146 -222 0
148 -222 0
150 -222 0
152 -222 0
154 -222 0
155 -222 0
157 -222 0
160 -222 0
161 -222 0
164 -222 0
165 -222 0
168 -222 0
169 -222 0
171 -222 0
174 -222 0
175 -222 0
178 -222 0
179 -222 0
181 -222 0
184 -222 0
186 -222 0
187 -222 0
190 -222 0
191 192 193 0
194 195 196 0
197 198 199 0
200 201 202 0
203 204 205 0
206 207 208 0
209 210 211 0
212 213 214 0
215 216 217 0
220 221 222 0
